param c:	
		1	2 :=
	1	120000	80000
	2	90000	60000
;
param cap:
		1	2	3	:=	
	1	20	4	3
	2	15	1	2
;	
param demA :=
	1	570
	2	25
	3	18
;
param demB = 350;
param capAero :=
	1	2000
	2	150
	3	230
;